Route #1: 20 34 2 30 29 54
Route #2: 13 8 24 59 27 45 5
Route #3: 25 60 49 36 48 16 7
Route #4: 10 42 9 41 3 61
Route #5: 52 47 4 18 1 46 31 38 43
Route #6: 6 37 35 51 57 62 23 39
Route #7: 11 33 15 56 19 26
Route #8: 22 50 17 28 12
Route #9: 21 40 14 58 32 55 53 44
Cost 1627
Time 0.116752
